6876.0 429039.0 
6881.0 428254.0 
6889.0 426642.0 
6895.0 421980.0 
7036.0 414571.0 
6903.0 420048.0 
7074.0 414348.0 
6874.0 429565.0 
7077.0 413265.0 
6891.0 421998.0 
6983.0 415941.0 
6984.0 415813.0 
6962.0 417103.0 
6884.0 427878.0 
6899.0 420826.0 
6967.0 416661.0 
6931.0 418958.0 
6887.0 427569.0 
